n_res = 4;
rc = [ 34, 33, 31, 30 ];
n_tasks = 120;
d = [ 6, 2, 5, 7, 7, 1, 9, 1, 9, 2, 8, 3, 7, 9, 4, 3, 10, 9, 4, 3, 4, 1, 10, 10, 9, 8, 6, 4, 4, 8, 6, 4, 8, 4, 10, 1, 3, 4, 4, 1, 7, 10, 5, 5, 6, 9, 10, 8, 10, 8, 7, 6, 5, 2, 9, 4, 3, 4, 8, 2, 6, 5, 1, 4, 8, 8, 8, 8, 10, 10, 6, 1, 9, 10, 5, 6, 7, 4, 8, 6, 10, 10, 3, 5, 10, 5, 1, 2, 3, 3, 8, 8, 2, 10, 7, 3, 10, 3, 8, 2, 8, 3, 5, 2, 6, 7, 4, 5, 6, 9, 8, 9, 8, 5, 2, 9, 2, 6, 7, 10 ];
rr = [| 4, 10, 2, 10, 4, 9, 1, 8, 2, 8, 3, 1, 4, 6, 4, 8, 5, 4, 5, 4, 2, 5, 8, 2, 2, 6, 5, 3, 10, 10, 8, 8, 2, 7, 5, 3, 4, 4, 8, 1, 3, 1, 1, 1, 8, 4, 10, 8, 5, 10, 4, 7, 8, 2, 4, 4, 1, 4, 3, 2, 6, 9, 9, 8, 8, 6, 6, 2, 1, 4, 8, 2, 3, 8, 1, 2, 5, 6, 7, 5, 1, 5, 8, 5, 6, 2, 10, 1, 7, 4, 1, 2, 6, 2, 4, 4, 10, 9, 2, 10, 9, 3, 4, 7, 3, 8, 3, 9, 9, 1, 4, 1, 6, 7, 2, 6, 9, 7, 1, 10
      | 7, 9, 4, 2, 9, 4, 6, 2, 2, 7, 6, 2, 10, 10, 9, 6, 2, 9, 2, 2, 8, 2, 4, 2, 7, 5, 4, 4, 2, 3, 10, 10, 8, 10, 8, 5, 7, 8, 1, 1, 8, 8, 1, 4, 3, 1, 1, 2, 4, 10, 8, 8, 1, 7, 8, 4, 5, 9, 8, 7, 6, 10, 2, 2, 10, 2, 9, 8, 7, 7, 8, 6, 6, 5, 9, 2, 4, 8, 1, 9, 8, 3, 6, 3, 2, 10, 8, 5, 5, 5, 10, 8, 7, 5, 8, 10, 8, 5, 9, 10, 8, 5, 8, 8, 6, 10, 3, 6, 4, 6, 9, 7, 2, 6, 7, 10, 9, 8, 7, 9
      | 9, 7, 7, 7, 3, 6, 8, 5, 10, 9, 6, 3, 3, 10, 1, 7, 6, 2, 1, 5, 5, 5, 10, 3, 7, 1, 9, 8, 5, 9, 5, 4, 8, 2, 7, 9, 6, 6, 5, 1, 6, 7, 5, 8, 4, 10, 1, 2, 2, 8, 2, 9, 4, 1, 5, 6, 3, 6, 8, 8, 8, 1, 9, 8, 8, 1, 2, 2, 2, 4, 5, 5, 1, 2, 6, 3, 6, 10, 8, 5, 2, 1, 10, 7, 7, 8, 9, 6, 6, 9, 2, 8, 7, 10, 5, 4, 4, 4, 8, 9, 2, 2, 9, 1, 10, 2, 4, 10, 4, 8, 9, 6, 8, 9, 6, 3, 3, 1, 10, 9
      | 7, 10, 4, 9, 8, 6, 4, 7, 8, 4, 5, 10, 7, 9, 10, 8, 1, 2, 1, 7, 7, 1, 4, 5, 5, 2, 7, 10, 2, 6, 9, 10, 4, 7, 1, 3, 8, 5, 10, 3, 6, 10, 1, 3, 6, 4, 10, 2, 5, 1, 2, 7, 1, 5, 1, 3, 3, 6, 3, 9, 8, 1, 5, 3, 7, 2, 10, 1, 5, 3, 2, 3, 7, 9, 9, 8, 6, 9, 7, 10, 3, 10, 2, 9, 7, 7, 2, 3, 8, 9, 9, 6, 1, 2, 5, 5, 5, 7, 9, 2, 1, 9, 6, 4, 5, 3, 8, 1, 1, 2, 4, 8, 7, 1, 2, 9, 9, 1, 4, 8 |];
suc = [ { 4, 6, 8 },
       { 5, 14, 49 },
       { 9, 47 },
       { 11, 25, 26 },
       { 15, 40, 55 },
       { 7, 18, 23 },
       { 29, 32, 53 },
       { 10, 12, 83 },
       { 13, 17, 30 },
       { 44, 46 },
       { 16, 24, 42 },
       { 46, 64 },
       { 22, 79 },
       { 28, 31, 43 },
       { 19, 21, 87 },
       { 34, 90 },
       { 33, 60 },
       { 35, 58, 63 },
       { 20, 39 },
       { 75 },
       { 48 },
       { 36 },
       { 27, 33, 65 },
       { 59, 62 },
       { 66 },
       { 73 },
       { 37 },
       { 36 },
       { 95, 97 },
       { 50 },
       { 89 },
       { 66 },
       { 82, 114 },
       { 114 },
       { 52, 89, 94 },
       { 68, 70 },
       { 38, 85 },
       { 41, 54 },
       { 92 },
       { 44, 64 },
       { 51, 71 },
       { 76, 88 },
       { 62 },
       { 45, 57, 74 },
       { 67 },
       { 93 },
       { 59, 66 },
       { 102 },
       { 69, 99 },
       { 61, 80 },
       { 107 },
       { 56 },
       { 110 },
       { 108 },
       { 62 },
       { 71, 118 },
       { 100 },
       { 81, 106, 112 },
       { 72, 84 },
       { 107 },
       { 118 },
       { 78 },
       { 110 },
       { 106 },
       { 109 },
       { 82 },
       { 77 },
       { 86 },
       { 98 },
       { 88 },
       { 86, 91 },
       { 92 },
       { 92 },
       { 95, 111 },
       { 78 },
       { 81, 105 },
       { 96 },
       { 99 },
       { 108 },
       { 89 },
       { 114 },
       { 90 },
       { 91, 105 },
       { 110 },
       { 101 },
       { 93 },
       { 97 },
       { 113 },
       { 104 },
       { 109 },
       { 109 },
       { 94, 97 },
       { 108 },
       { 117 },
       { 104 },
       { 106 },
       { 101 },
       { 102, 104 },
       { 105 },
       { 115, 117 },
       { 116 },
       { 103 },
       { 115 },
       { 115 },
       { 113 },
       { 116 },
       { 111 },
       { 112 },
       { 116 },
       { 120 },
       { 113 },
       { 119 },
       { 119 },
       { 119 },
       { 118 },
       { 117 },
       { 120 },
       {  },
       {  },
       {  } ];
